data/CVRPLIB/Vrp-Set-XML100/instances/XML100_2111_15.vrp
NAME : XML100_2111_15
COMMENT : Generated by Queiroga, Sadykov, Uchoa, and Vidal (2021)
TYPE : CVRP
DIMENSION : 101
EDGE_WEIGHT_TYPE : EUC_2D
CAPACITY : 4
NODE_COORD_SECTION
1    500  500 
2    113  680 
3    332  52  
4    69   889 
5    685  791 
6    844  510 
7    27   501 
8    696  966 
9    934  277 
10   234  686 
11   779  686 
12   378  336 
13   846  136 
14   782  412 
15   137  800 
16   808  778 
17   475  42  
18   795  702 
19   55   549 
20   608  710 
21   617  918 
22   816  195 
23   745  990 
24   187  158 
25   829  507 
26   248  478 
27   567  392 
28   630  494 
29   711  4   
30   713  721 
31   721  471 
32   5    706 
33   911  911 
34   530  554 
35   218  303 
36   302  592 
37   685  378 
38   702  843 
39   605  993 
40   958  209 
41   543  633 
42   927  308 
43   49   990 
44   574  614 
45   599  476 
46   92   857 
47   918  627 
48   292  844 
49   775  171 
50   799  289 
51   964  522 
52   416  607 
53   121  326 
54   413  803 
55   16   446 
56   499  545 
57   773  834 
58   485  361 
59   879  35  
60   114  581 
61   429  850 
62   154  132 
63   304  229 
64   183  60  
65   224  248 
66   813  999 
67   223  821 
68   527  272 
69   302  616 
70   166  164 
71   77   2   
72   607  108 
73   112  762 
74   870  883 
75   493  161 
76   337  168 
77   295  928 
78   576  308 
79   546  223 
80   15   35  
81   891  492 
82   155  676 
83   362  129 
84   106  400 
85   308  178 
86   123  93  
87   727  208 
88   585  373 
89   257  110 
90   463  648 
91   376  290 
92   445  344 
93   368  148 
94   703  616 
95   697  307 
96   638  136 
97   616  9   
98   135  339 
99   352  747 
100  223  184 
101  972  630 
DEMAND_SECTION
1    0   
2    1   
3    1   
4    1   
5    1   
6    1   
7    1   
8    1   
9    1   
10   1   
11   1   
12   1   
13   1   
14   1   
15   1   
16   1   
17   1   
18   1   
19   1   
20   1   
21   1   
22   1   
23   1   
24   1   
25   1   
26   1   
27   1   
28   1   
29   1   
30   1   
31   1   
32   1   
33   1   
34   1   
35   1   
36   1   
37   1   
38   1   
39   1   
40   1   
41   1   
42   1   
43   1   
44   1   
45   1   
46   1   
47   1   
48   1   
49   1   
50   1   
51   1   
52   1   
53   1   
54   1   
55   1   
56   1   
57   1   
58   1   
59   1   
60   1   
61   1   
62   1   
63   1   
64   1   
65   1   
66   1   
67   1   
68   1   
69   1   
70   1   
71   1   
72   1   
73   1   
74   1   
75   1   
76   1   
77   1   
78   1   
79   1   
80   1   
81   1   
82   1   
83   1   
84   1   
85   1   
86   1   
87   1   
88   1   
89   1   
90   1   
91   1   
92   1   
93   1   
94   1   
95   1   
96   1   
97   1   
98   1   
99   1   
100  1   
101  1   
DEPOT_SECTION
1
-1
EOF
