data/CVRPLIB/Vrp-Set-XML100/solutions/XML100_2111_15.sol
Route #1: 57 91 90 11
Route #2: 46 100 50 80
Route #3: 63 70 79 85
Route #4: 99 88 2 82
Route #5: 41 8 39 49
Route #6: 26 77 78 67
Route #7: 22 65 32 73
Route #8: 34 52 97 25
Route #9: 93 10 17 29
Route #10: 89 51 68 35
Route #11: 62 84 75 92
Route #12: 74 16 71 95
Route #13: 9 72 14 66
Route #14: 64 69 61 23
Route #15: 30 24 5 13
Route #16: 83 54 6 18
Route #17: 59 31 1 81
Route #18: 12 58 28 96
Route #19: 76 42 3 45
Route #20: 44 27 36 87
Route #21: 98 47 60 53
Route #22: 19 4 56 15
Route #23: 94 21 48 86
Route #24: 55 40 43 33
Route #25: 37 7 38 20
Cost 23666
